
Log started (V22.1.1.0) Tue Dec 12 02:26:51 2023


Problem 'C:\Users\wangy\Documents\GitHub\re_optimization\result_site_specific_2\tmpn64tsbvi.pyomo.lp' read.
Read time = 0.38 sec. (8.89 ticks)

Problem name         : C:\Users\wangy\Documents\GitHub\re_optimization\result_site_specific_2\tmpn64tsbvi.pyomo.lp
Objective sense      : Minimize
Variables            :   64323  [Nneg: 30685,  Free: 11732,  Binary: 6,
                                 Other: 21900]
Objective nonzeros   :      14
Linear constraints   :   86220  [Less: 42356,  Greater: 5,  Equal: 43859]
  Nonzeros           :  219261
  RHS nonzeros       :    3723

Variables            : Min LB: 0.000000         Max UB: 1.000000       
Objective nonzeros   : Min   : 1.000000         Max   : 1.000000       
Linear constraints   :
  Nonzeros           : Min   : 0.002339912      Max   : 100000.0       
  RHS nonzeros       : Min   : 0.004000000      Max   : 100000.0       
Version identifier: 22.1.1.0 | 2022-11-27 | 9160aff4d
Tried aggregator 3 times.
MIP Presolve eliminated 43722 rows and 23279 columns.
Aggregator did 19904 substitutions.
Reduced MIP has 22594 rows, 21140 columns, and 69082 nonzeros.
Reduced MIP has 2 binaries, 0 generals, 0 SOSs, and 0 indicators.
Presolve time = 0.42 sec. (421.72 ticks)
Probing time = 0.02 sec. (1.51 ticks)
Tried aggregator 1 time.
Detecting symmetries...
MIP Presolve modified 2 coefficients.
Reduced MIP has 22594 rows, 21140 columns, and 69082 nonzeros.
Reduced MIP has 2 binaries, 0 generals, 0 SOSs, and 0 indicators.
Presolve time = 0.08 sec. (45.46 ticks)
Probing time = 0.02 sec. (1.39 ticks)
MIP emphasis: balance optimality and feasibility.
MIP search method: dynamic search.
Parallel mode: deterministic, using up to 16 threads.
Root relaxation solution time = 2.12 sec. (966.91 ticks)

        Nodes                                         Cuts/
   Node  Left     Objective  IInf  Best Integer    Best Bound    ItCnt     Gap

*     0+    0                      7192044.1182     -374.7030           100.01%
      0     0  1900948.4038     2  7192044.1182  1900948.4038       62   73.57%
*     0+    0                      1904199.3054  1900948.4038             0.17%
      0     0        cutoff        1904199.3054  1904199.3054     1040    0.00%
Elapsed time = 4.36 sec. (4775.84 ticks, tree = 0.01 MB, solutions = 2)

Mixed integer rounding cuts applied:  4371

Root node processing (before b&c):
  Real time             =    4.38 sec. (4778.44 ticks)
Parallel b&c, 16 threads:
  Real time             =    0.00 sec. (0.00 ticks)
  Sync time (average)   =    0.00 sec.
  Wait time (average)   =    0.00 sec.
                          ------------
Total (root+branch&cut) =    4.38 sec. (4778.44 ticks)

Solution pool: 2 solutions saved.

MIP - Integer optimal solution:  Objective =  1.9041993054e+06
Solution time =    4.39 sec.  Iterations = 1040  Nodes = 0
Deterministic time = 4778.63 ticks  (1088.28 ticks/sec)


Incumbent solution written to file 'C:\Users\wangy\Documents\GitHub\re_optimization\result_site_specific_2\tmpr3m7szbh.cplex.sol'.
